(set-info :source |printed by MathSAT|)
(declare-fun call__PRODUCER_CONSUMMER_.i.next () Int)
(declare-fun call__PRODUCER_CONSUMMER_.flby2.next () Int)
(declare-fun call_excludes3.excludes () Bool)
(declare-fun _OK_ () Bool)
(declare-fun param_etat1.next () Bool)
(declare-fun call__PRODUCER_CONSUMMER_.ite8.next () Int)
(declare-fun i.next () Int)
(declare-fun call__PRODUCER_CONSUMMER_.garde3.next () Bool)
(declare-fun call__PRODUCER_CONSUMMER_.flby2 () Int)
(declare-fun call_First.flby.next () Int)
(declare-fun call__PRODUCER_CONSUMMER_.garde1.next () Bool)
(declare-fun call__PRODUCER_CONSUMMER_.ite3 () Int)
(declare-fun flby2.next () Bool)
(declare-fun param_etat1 () Bool)
(declare-fun call__PRODUCER_CONSUMMER_.a.next () Int)
(declare-fun i () Int)
(declare-fun o1.next () Int)
(declare-fun call__PRODUCER_CONSUMMER_.garde2.next () Bool)
(declare-fun call__PRODUCER_CONSUMMER_.ite3.next () Int)
(declare-fun call__PRODUCER_CONSUMMER_.ite4 () Int)
(declare-fun call_First.First () Int)
(declare-fun call__PRODUCER_CONSUMMER_.o1 () Int)
(declare-fun flby.next () Bool)
(declare-fun call__PRODUCER_CONSUMMER_.ite2.next () Int)
(declare-fun call_Sofar.Sofar () Bool)
(declare-fun call_First.First.next () Int)
(declare-fun call__PRODUCER_CONSUMMER_.flby4.next () Int)
(declare-fun b.next () Int)
(declare-fun call__PRODUCER_CONSUMMER_.flby () Int)
(declare-fun param_etat3.next () Bool)
(declare-fun call__PRODUCER_CONSUMMER_.ite5.next () Int)
(declare-fun call_First.flby () Int)
(declare-fun call__PRODUCER_CONSUMMER_.ite9.next () Int)
(declare-fun call__PRODUCER_CONSUMMER_.b () Int)
(declare-fun call__PRODUCER_CONSUMMER_.ite5 () Int)
(declare-fun o2.next () Int)
(declare-fun param_etat2 () Bool)
(declare-fun call__PRODUCER_CONSUMMER_.flby5.next () Int)
(declare-fun call__PRODUCER_CONSUMMER_.ite.next () Int)
(declare-fun b () Int)
(declare-fun call__PRODUCER_CONSUMMER_.ite6.next () Int)
(declare-fun param_etat3 () Bool)
(declare-fun o1 () Int)
(declare-fun env () Bool)
(declare-fun call_Sofar.flby.next () Bool)
(declare-fun call__PRODUCER_CONSUMMER_.a () Int)
(declare-fun _OK_.next () Bool)
(declare-fun env.next () Bool)
(declare-fun call_Sofar.Sofar.next () Bool)
(declare-fun call_excludes3.excludes.next () Bool)
(declare-fun call__PRODUCER_CONSUMMER_.i () Int)
(declare-fun call__PRODUCER_CONSUMMER_.ite6 () Int)
(declare-fun call__PRODUCER_CONSUMMER_.b.next () Int)
(declare-fun call__PRODUCER_CONSUMMER_.ite7.next () Int)
(declare-fun call__PRODUCER_CONSUMMER_.flby3 () Int)
(declare-fun call__PRODUCER_CONSUMMER_.o1.next () Int)
(declare-fun flby () Bool)
(declare-fun call__PRODUCER_CONSUMMER_.o2 () Int)
(declare-fun call__PRODUCER_CONSUMMER_.flby4 () Int)
(declare-fun call__PRODUCER_CONSUMMER_.flby5 () Int)
(declare-fun call__PRODUCER_CONSUMMER_.flby.next () Int)
(declare-fun call__PRODUCER_CONSUMMER_.o2.next () Int)
(declare-fun a () Int)
(declare-fun call__PRODUCER_CONSUMMER_.flby3.next () Int)
(declare-fun flby2 () Bool)
(declare-fun call__PRODUCER_CONSUMMER_.ite4.next () Int)
(declare-fun call__PRODUCER_CONSUMMER_.ite11.next () Int)
(declare-fun a.next () Int)
(declare-fun o2 () Int)
(declare-fun call__PRODUCER_CONSUMMER_.ite10.next () Int)
(declare-fun param_etat2.next () Bool)
(declare-fun call_Sofar.flby () Bool)
(declare-fun call__PRODUCER_CONSUMMER_.ite7 () Int)
(define-fun .def_648 () Bool (= call_First.flby.next call_First.First.next))
(define-fun .def_646 () Bool (= call_Sofar.flby.next call_Sofar.Sofar.next))
(define-fun .def_641 () Bool (and param_etat2.next param_etat3.next))
(define-fun .def_639 () Bool (and param_etat1.next param_etat3.next))
(define-fun .def_638 () Bool (and param_etat2.next param_etat1.next))
(define-fun .def_640 () Bool (or .def_638 .def_639))
(define-fun .def_642 () Bool (or .def_640 .def_641))
(define-fun .def_643 () Bool (not .def_642))
(define-fun .def_644 () Bool (= call_excludes3.excludes.next .def_643))
(define-fun .def_636 () Bool (= call__PRODUCER_CONSUMMER_.flby5.next call__PRODUCER_CONSUMMER_.o2.next))
(define-fun .def_634 () Bool (= call__PRODUCER_CONSUMMER_.flby4.next call__PRODUCER_CONSUMMER_.o1.next))
(define-fun .def_632 () Bool (= call__PRODUCER_CONSUMMER_.flby3.next call__PRODUCER_CONSUMMER_.a.next))
(define-fun .def_630 () Bool (= call__PRODUCER_CONSUMMER_.flby2.next call__PRODUCER_CONSUMMER_.b.next))
(define-fun .def_628 () Bool (= call__PRODUCER_CONSUMMER_.flby.next call__PRODUCER_CONSUMMER_.i.next))
(define-fun .def_624 () Bool (= call__PRODUCER_CONSUMMER_.ite4.next call__PRODUCER_CONSUMMER_.ite6.next))
(define-fun .def_480 () Bool (not param_etat2.next))
(define-fun .def_625 () Bool (or .def_480 .def_624))
(define-fun .def_622 () Bool (= call__PRODUCER_CONSUMMER_.ite5.next call__PRODUCER_CONSUMMER_.ite6.next))
(define-fun .def_623 () Bool (or param_etat2.next .def_622))
(define-fun .def_626 () Bool (and .def_623 .def_625))
(define-fun .def_618 () Bool (= call__PRODUCER_CONSUMMER_.ite3.next call__PRODUCER_CONSUMMER_.ite7.next))
(define-fun .def_471 () Bool (not param_etat1.next))
(define-fun .def_619 () Bool (or .def_471 .def_618))
(define-fun .def_616 () Bool (= call__PRODUCER_CONSUMMER_.ite7.next call__PRODUCER_CONSUMMER_.ite6.next))
(define-fun .def_617 () Bool (or param_etat1.next .def_616))
(define-fun .def_620 () Bool (and .def_617 .def_619))
(define-fun .def_609 () Bool (<= call_First.First.next 0))
(define-fun .def_610 () Bool (not .def_609))
(define-fun .def_612 () Bool (and .def_610 call_Sofar.Sofar.next))
(define-fun .def_613 () Bool (= env.next .def_612))
(define-fun .def_606 () Bool (= o2.next call__PRODUCER_CONSUMMER_.o2.next))
(define-fun .def_602 () Bool (= o1.next call__PRODUCER_CONSUMMER_.o1.next))
(define-fun .def_599 () Bool (= a.next call__PRODUCER_CONSUMMER_.a.next))
(define-fun .def_595 () Bool (= b.next call__PRODUCER_CONSUMMER_.b.next))
(define-fun .def_591 () Bool (= i.next call__PRODUCER_CONSUMMER_.i.next))
(define-fun .def_585 () Bool (and flby.next env.next))
(define-fun .def_586 () Bool (not .def_585))
(define-fun .def_587 () Bool (or flby2.next .def_586))
(define-fun .def_588 () Bool (= _OK_.next .def_587))
(define-fun .def_592 () Bool (and .def_588 .def_591))
(define-fun .def_596 () Bool (and .def_592 .def_595))
(define-fun .def_600 () Bool (and .def_596 .def_599))
(define-fun .def_603 () Bool (and .def_600 .def_602))
(define-fun .def_607 () Bool (and .def_603 .def_606))
(define-fun .def_614 () Bool (and .def_607 .def_613))
(define-fun .def_621 () Bool (and .def_614 .def_620))
(define-fun .def_627 () Bool (and .def_621 .def_626))
(define-fun .def_629 () Bool (and .def_627 .def_628))
(define-fun .def_631 () Bool (and .def_629 .def_630))
(define-fun .def_633 () Bool (and .def_631 .def_632))
(define-fun .def_635 () Bool (and .def_633 .def_634))
(define-fun .def_637 () Bool (and .def_635 .def_636))
(define-fun .def_645 () Bool (and .def_637 .def_644))
(define-fun .def_647 () Bool (and .def_645 .def_646))
(define-fun .def_649 () Bool (and .def_647 .def_648))
(define-fun .def_450 () Bool (= call_First.flby call_First.First))
(define-fun .def_448 () Bool (= call_Sofar.flby call_Sofar.Sofar))
(define-fun .def_443 () Bool (and param_etat2 param_etat3))
(define-fun .def_441 () Bool (and param_etat1 param_etat3))
(define-fun .def_440 () Bool (and param_etat1 param_etat2))
(define-fun .def_442 () Bool (or .def_440 .def_441))
(define-fun .def_444 () Bool (or .def_442 .def_443))
(define-fun .def_445 () Bool (not .def_444))
(define-fun .def_446 () Bool (= call_excludes3.excludes .def_445))
(define-fun .def_438 () Bool (= call__PRODUCER_CONSUMMER_.flby5 call__PRODUCER_CONSUMMER_.o2))
(define-fun .def_436 () Bool (= call__PRODUCER_CONSUMMER_.flby4 call__PRODUCER_CONSUMMER_.o1))
(define-fun .def_434 () Bool (= call__PRODUCER_CONSUMMER_.a call__PRODUCER_CONSUMMER_.flby3))
(define-fun .def_432 () Bool (= call__PRODUCER_CONSUMMER_.flby2 call__PRODUCER_CONSUMMER_.b))
(define-fun .def_430 () Bool (= call__PRODUCER_CONSUMMER_.flby call__PRODUCER_CONSUMMER_.i))
(define-fun .def_426 () Bool (= call__PRODUCER_CONSUMMER_.ite6 call__PRODUCER_CONSUMMER_.ite4))
(define-fun .def_347 () Bool (not param_etat2))
(define-fun .def_427 () Bool (or .def_347 .def_426))
(define-fun .def_423 () Bool (= call__PRODUCER_CONSUMMER_.ite6 call__PRODUCER_CONSUMMER_.ite5))
(define-fun .def_424 () Bool (or param_etat2 .def_423))
(define-fun .def_428 () Bool (and .def_424 .def_427))
(define-fun .def_418 () Bool (= call__PRODUCER_CONSUMMER_.ite7 call__PRODUCER_CONSUMMER_.ite3))
(define-fun .def_334 () Bool (not param_etat1))
(define-fun .def_419 () Bool (or .def_334 .def_418))
(define-fun .def_415 () Bool (= call__PRODUCER_CONSUMMER_.ite7 call__PRODUCER_CONSUMMER_.ite6))
(define-fun .def_416 () Bool (or param_etat1 .def_415))
(define-fun .def_420 () Bool (and .def_416 .def_419))
(define-fun .def_407 () Bool (<= call_First.First 0))
(define-fun .def_408 () Bool (not .def_407))
(define-fun .def_410 () Bool (and .def_408 call_Sofar.Sofar))
(define-fun .def_411 () Bool (= env .def_410))
(define-fun .def_404 () Bool (= o2 call__PRODUCER_CONSUMMER_.o2))
(define-fun .def_400 () Bool (= o1 call__PRODUCER_CONSUMMER_.o1))
(define-fun .def_396 () Bool (= call__PRODUCER_CONSUMMER_.a a))
(define-fun .def_393 () Bool (= b call__PRODUCER_CONSUMMER_.b))
(define-fun .def_389 () Bool (= i call__PRODUCER_CONSUMMER_.i))
(define-fun .def_383 () Bool (and flby env))
(define-fun .def_384 () Bool (not .def_383))
(define-fun .def_385 () Bool (or flby2 .def_384))
(define-fun .def_386 () Bool (= _OK_ .def_385))
(define-fun .def_390 () Bool (and .def_386 .def_389))
(define-fun .def_394 () Bool (and .def_390 .def_393))
(define-fun .def_397 () Bool (and .def_394 .def_396))
(define-fun .def_401 () Bool (and .def_397 .def_400))
(define-fun .def_405 () Bool (and .def_401 .def_404))
(define-fun .def_412 () Bool (and .def_405 .def_411))
(define-fun .def_421 () Bool (and .def_412 .def_420))
(define-fun .def_429 () Bool (and .def_421 .def_428))
(define-fun .def_431 () Bool (and .def_429 .def_430))
(define-fun .def_433 () Bool (and .def_431 .def_432))
(define-fun .def_435 () Bool (and .def_433 .def_434))
(define-fun .def_437 () Bool (and .def_435 .def_436))
(define-fun .def_439 () Bool (and .def_437 .def_438))
(define-fun .def_447 () Bool (and .def_439 .def_446))
(define-fun .def_449 () Bool (and .def_447 .def_448))
(define-fun .def_451 () Bool (and .def_449 .def_450))
(define-fun .def_650 () Bool (and .def_451 .def_649))
(define-fun .def_581 () Bool (= call_First.First call_First.flby.next))
(define-fun .def_576 () Bool (and call_Sofar.Sofar call_excludes3.excludes.next))
(define-fun .def_578 () Bool (= .def_576 call_Sofar.flby.next))
(define-fun .def_573 () Bool (= call__PRODUCER_CONSUMMER_.ite11.next call__PRODUCER_CONSUMMER_.flby5.next))
(define-fun .def_570 () Bool (= call__PRODUCER_CONSUMMER_.ite9.next call__PRODUCER_CONSUMMER_.flby4.next))
(define-fun .def_567 () Bool (= call__PRODUCER_CONSUMMER_.a call__PRODUCER_CONSUMMER_.flby3.next))
(define-fun .def_564 () Bool (= call__PRODUCER_CONSUMMER_.ite7.next call__PRODUCER_CONSUMMER_.flby2.next))
(define-fun .def_560 () Bool (= call__PRODUCER_CONSUMMER_.ite2.next call__PRODUCER_CONSUMMER_.flby.next))
(define-fun .def_554 () Bool (<= 1 call__PRODUCER_CONSUMMER_.b))
(define-fun .def_557 () Bool (= call__PRODUCER_CONSUMMER_.garde3.next .def_554))
(define-fun .def_555 () Bool (= call__PRODUCER_CONSUMMER_.garde2.next .def_554))
(define-fun .def_551 () Bool (<= 1 call__PRODUCER_CONSUMMER_.i))
(define-fun .def_552 () Bool (= call__PRODUCER_CONSUMMER_.garde1.next .def_551))
(define-fun .def_545 () Int (* (- 1) call__PRODUCER_CONSUMMER_.ite10.next))
(define-fun .def_546 () Int (+ call__PRODUCER_CONSUMMER_.o2 .def_545))
(define-fun .def_547 () Bool (= .def_546 (- 1)))
(define-fun .def_528 () Bool (not call__PRODUCER_CONSUMMER_.garde3.next))
(define-fun .def_548 () Bool (or .def_528 .def_547))
(define-fun .def_543 () Bool (= call__PRODUCER_CONSUMMER_.o2 call__PRODUCER_CONSUMMER_.ite10.next))
(define-fun .def_544 () Bool (or call__PRODUCER_CONSUMMER_.garde3.next .def_543))
(define-fun .def_549 () Bool (and .def_544 .def_548))
(define-fun .def_537 () Int (* (- 1) call__PRODUCER_CONSUMMER_.ite8.next))
(define-fun .def_538 () Int (+ call__PRODUCER_CONSUMMER_.o1 .def_537))
(define-fun .def_539 () Bool (= .def_538 (- 1)))
(define-fun .def_517 () Bool (not call__PRODUCER_CONSUMMER_.garde2.next))
(define-fun .def_540 () Bool (or .def_517 .def_539))
(define-fun .def_535 () Bool (= call__PRODUCER_CONSUMMER_.o1 call__PRODUCER_CONSUMMER_.ite8.next))
(define-fun .def_536 () Bool (or call__PRODUCER_CONSUMMER_.garde2.next .def_535))
(define-fun .def_541 () Bool (and .def_536 .def_540))
(define-fun .def_531 () Bool (= call__PRODUCER_CONSUMMER_.b call__PRODUCER_CONSUMMER_.ite5.next))
(define-fun .def_532 () Bool (or call__PRODUCER_CONSUMMER_.garde3.next .def_531))
(define-fun .def_524 () Int (* (- 1) call__PRODUCER_CONSUMMER_.ite5.next))
(define-fun .def_525 () Int (+ call__PRODUCER_CONSUMMER_.b .def_524))
(define-fun .def_526 () Bool (= .def_525 1))
(define-fun .def_529 () Bool (or .def_526 .def_528))
(define-fun .def_520 () Bool (= call__PRODUCER_CONSUMMER_.b call__PRODUCER_CONSUMMER_.ite4.next))
(define-fun .def_521 () Bool (or call__PRODUCER_CONSUMMER_.garde2.next .def_520))
(define-fun .def_513 () Int (* (- 1) call__PRODUCER_CONSUMMER_.ite4.next))
(define-fun .def_514 () Int (+ call__PRODUCER_CONSUMMER_.b .def_513))
(define-fun .def_515 () Bool (= .def_514 1))
(define-fun .def_518 () Bool (or .def_515 .def_517))
(define-fun .def_507 () Int (* (- 1) call__PRODUCER_CONSUMMER_.ite3.next))
(define-fun .def_508 () Int (+ call__PRODUCER_CONSUMMER_.b .def_507))
(define-fun .def_509 () Bool (= .def_508 (- 1)))
(define-fun .def_500 () Bool (not call__PRODUCER_CONSUMMER_.garde1.next))
(define-fun .def_510 () Bool (or .def_500 .def_509))
(define-fun .def_505 () Bool (= call__PRODUCER_CONSUMMER_.b call__PRODUCER_CONSUMMER_.ite3.next))
(define-fun .def_506 () Bool (or call__PRODUCER_CONSUMMER_.garde1.next .def_505))
(define-fun .def_511 () Bool (and .def_506 .def_510))
(define-fun .def_519 () Bool (and .def_511 .def_518))
(define-fun .def_522 () Bool (and .def_519 .def_521))
(define-fun .def_530 () Bool (and .def_522 .def_529))
(define-fun .def_533 () Bool (and .def_530 .def_532))
(define-fun .def_497 () Int (* (- 1) call__PRODUCER_CONSUMMER_.ite.next))
(define-fun .def_498 () Int (+ call__PRODUCER_CONSUMMER_.i .def_497))
(define-fun .def_499 () Bool (= .def_498 1))
(define-fun .def_501 () Bool (or .def_499 .def_500))
(define-fun .def_494 () Bool (= call__PRODUCER_CONSUMMER_.i call__PRODUCER_CONSUMMER_.ite.next))
(define-fun .def_496 () Bool (or .def_494 call__PRODUCER_CONSUMMER_.garde1.next))
(define-fun .def_502 () Bool (and .def_496 .def_501))
(define-fun .def_490 () Bool (not param_etat3.next))
(define-fun .def_489 () Bool (= call__PRODUCER_CONSUMMER_.ite11.next call__PRODUCER_CONSUMMER_.ite10.next))
(define-fun .def_491 () Bool (or .def_489 .def_490))
(define-fun .def_485 () Bool (= call__PRODUCER_CONSUMMER_.o2 call__PRODUCER_CONSUMMER_.ite11.next))
(define-fun .def_487 () Bool (or .def_485 param_etat3.next))
(define-fun .def_492 () Bool (and .def_487 .def_491))
(define-fun .def_479 () Bool (= call__PRODUCER_CONSUMMER_.ite9.next call__PRODUCER_CONSUMMER_.ite8.next))
(define-fun .def_481 () Bool (or .def_479 .def_480))
(define-fun .def_476 () Bool (= call__PRODUCER_CONSUMMER_.o1 call__PRODUCER_CONSUMMER_.ite9.next))
(define-fun .def_477 () Bool (or param_etat2.next .def_476))
(define-fun .def_482 () Bool (and .def_477 .def_481))
(define-fun .def_470 () Bool (= call__PRODUCER_CONSUMMER_.ite2.next call__PRODUCER_CONSUMMER_.ite.next))
(define-fun .def_472 () Bool (or .def_470 .def_471))
(define-fun .def_466 () Bool (= call__PRODUCER_CONSUMMER_.i call__PRODUCER_CONSUMMER_.ite2.next))
(define-fun .def_468 () Bool (or .def_466 param_etat1.next))
(define-fun .def_473 () Bool (and .def_468 .def_472))
(define-fun .def_457 () Int (* (- 1) o1.next))
(define-fun .def_458 () Int (+ o1 .def_457))
(define-fun .def_459 () Bool (= .def_458 (- 1)))
(define-fun .def_454 () Bool (and param_etat1 param_etat2.next))
(define-fun .def_455 () Bool (not .def_454))
(define-fun .def_460 () Bool (or .def_455 .def_459))
(define-fun .def_462 () Bool (= .def_460 flby2.next))
(define-fun .def_464 () Bool (and .def_462 flby.next))
(define-fun .def_474 () Bool (and .def_464 .def_473))
(define-fun .def_483 () Bool (and .def_474 .def_482))
(define-fun .def_493 () Bool (and .def_483 .def_492))
(define-fun .def_503 () Bool (and .def_493 .def_502))
(define-fun .def_534 () Bool (and .def_503 .def_533))
(define-fun .def_542 () Bool (and .def_534 .def_541))
(define-fun .def_550 () Bool (and .def_542 .def_549))
(define-fun .def_553 () Bool (and .def_550 .def_552))
(define-fun .def_556 () Bool (and .def_553 .def_555))
(define-fun .def_558 () Bool (and .def_556 .def_557))
(define-fun .def_561 () Bool (and .def_558 .def_560))
(define-fun .def_565 () Bool (and .def_561 .def_564))
(define-fun .def_568 () Bool (and .def_565 .def_567))
(define-fun .def_571 () Bool (and .def_568 .def_570))
(define-fun .def_574 () Bool (and .def_571 .def_573))
(define-fun .def_579 () Bool (and .def_574 .def_578))
(define-fun .def_582 () Bool (and .def_579 .def_581))
(define-fun .def_651 () Bool (and .def_582 .def_650))
(assert .def_651)
